c nIsolatedPIs 0
c maxPI 11
p cnf 466 1366
c gate 12 -2 10 0
-2 -12 0
10 -12 0
2 -10 12 0
c gate 13 8 9 0
8 -13 0
9 -13 0
-8 -9 13 0
c gate 14 10 13 0
10 -14 0
13 -14 0
-10 -13 14 0
c gate 15 -3 -14 0
-3 -15 0
-14 -15 0
3 14 15 0
c gate 16 -12 -15 0
-12 -16 0
-15 -16 0
12 15 16 0
c gate 17 3 9 0
3 -17 0
9 -17 0
-3 -9 17 0
c gate 18 -13 -17 0
-13 -18 0
-17 -18 0
13 17 18 0
c gate 19 10 18 0
10 -19 0
18 -19 0
-10 -18 19 0
c gate 20 -3 10 0
-3 -20 0
10 -20 0
3 -10 20 0
c gate 21 -7 20 0
-7 -21 0
20 -21 0
7 -20 21 0
c gate 22 7 -10 0
7 -22 0
-10 -22 0
-7 10 22 0
c gate 23 13 22 0
13 -23 0
22 -23 0
-13 -22 23 0
c gate 24 -21 -23 0
-21 -24 0
-23 -24 0
21 23 24 0
c gate 25 -19 24 0
-19 -25 0
24 -25 0
19 -24 25 0
c gate 26 -2 -25 0
-2 -26 0
-25 -26 0
2 25 26 0
c gate 27 -16 -26 0
-16 -27 0
-26 -27 0
16 26 27 0
c gate 28 8 -9 0
8 -28 0
-9 -28 0
-8 9 28 0
c gate 29 4 5 0
4 -29 0
5 -29 0
-4 -5 29 0
c gate 30 28 -29 0
28 -30 0
-29 -30 0
-28 29 30 0
c gate 31 7 9 0
7 -31 0
9 -31 0
-7 -9 31 0
c gate 32 -7 -8 0
-7 -32 0
-8 -32 0
7 8 32 0
c gate 33 -31 -32 0
-31 -33 0
-32 -33 0
31 32 33 0
c gate 34 5 -33 0
5 -34 0
-33 -34 0
-5 33 34 0
c gate 35 9 32 0
9 -35 0
32 -35 0
-9 -32 35 0
c gate 36 -34 -35 0
-34 -36 0
-35 -36 0
34 35 36 0
c gate 37 -30 36 0
-30 -37 0
36 -37 0
30 -36 37 0
c gate 38 -2 -7 0
-2 -38 0
-7 -38 0
2 7 38 0
c gate 39 3 -38 0
3 -39 0
-38 -39 0
-3 38 39 0
c gate 40 -37 -39 0
-37 -40 0
-39 -40 0
37 39 40 0
c gate 41 -2 -3 0
-2 -41 0
-3 -41 0
2 3 41 0
c gate 42 -11 41 0
-11 -42 0
41 -42 0
11 -41 42 0
c gate 43 27 -37 0
27 -43 0
-37 -43 0
-27 37 43 0
c gate 44 42 -43 0
42 -44 0
-43 -44 0
-42 43 44 0
c gate 45 -3 -27 0
-3 -45 0
-27 -45 0
3 27 45 0
c gate 46 3 27 0
3 -46 0
27 -46 0
-3 -27 46 0
c gate 47 -45 -46 0
-45 -47 0
-46 -47 0
45 46 47 0
c gate 48 2 11 0
2 -48 0
11 -48 0
-2 -11 48 0
c gate 49 -2 -11 0
-2 -49 0
-11 -49 0
2 11 49 0
c gate 50 -48 -49 0
-48 -50 0
-49 -50 0
48 49 50 0
c gate 51 -47 50 0
-47 -51 0
50 -51 0
47 -50 51 0
c gate 52 -11 27 0
-11 -52 0
27 -52 0
11 -27 52 0
c gate 53 2 -45 0
2 -53 0
-45 -53 0
-2 45 53 0
c gate 54 -52 53 0
-52 -54 0
53 -54 0
52 -53 54 0
c gate 55 -51 -54 0
-51 -55 0
-54 -55 0
51 54 55 0
c gate 56 -44 55 0
-44 -56 0
55 -56 0
44 -55 56 0
c gate 57 -11 -56 0
-11 -57 0
-56 -57 0
11 56 57 0
c gate 58 -40 -57 0
-40 -58 0
-57 -58 0
40 57 58 0
c gate 59 -10 -11 0
-10 -59 0
-11 -59 0
10 11 59 0
c gate 60 41 59 0
41 -60 0
59 -60 0
-41 -59 60 0
c gate 61 -56 -60 0
-56 -61 0
-60 -61 0
56 60 61 0
c gate 62 -11 37 0
-11 -62 0
37 -62 0
11 -37 62 0
c gate 63 -10 62 0
-10 -63 0
62 -63 0
10 -62 63 0
c gate 64 9 -10 0
9 -64 0
-10 -64 0
-9 10 64 0
c gate 65 -9 -11 0
-9 -65 0
-11 -65 0
9 11 65 0
c gate 66 -64 -65 0
-64 -66 0
-65 -66 0
64 65 66 0
c gate 67 -37 66 0
-37 -67 0
66 -67 0
37 -66 67 0
c gate 68 8 -67 0
8 -68 0
-67 -68 0
-8 67 68 0
c gate 69 -63 68 0
-63 -69 0
68 -69 0
63 -68 69 0
c gate 70 9 -11 0
9 -70 0
-11 -70 0
-9 11 70 0
c gate 71 -36 -70 0
-36 -71 0
-70 -71 0
36 70 71 0
c gate 72 -8 -71 0
-8 -72 0
-71 -72 0
8 71 72 0
c gate 73 -62 72 0
-62 -73 0
72 -73 0
62 -72 73 0
c gate 74 10 11 0
10 -74 0
11 -74 0
-10 -11 74 0
c gate 75 -73 -74 0
-73 -75 0
-74 -75 0
73 74 75 0
c gate 76 -69 75 0
-69 -76 0
75 -76 0
69 -75 76 0
c gate 77 -37 76 0
-37 -77 0
76 -77 0
37 -76 77 0
c gate 78 61 77 0
61 -78 0
77 -78 0
-61 -77 78 0
c gate 79 37 -76 0
37 -79 0
-76 -79 0
-37 76 79 0
c gate 80 -77 -79 0
-77 -80 0
-79 -80 0
77 79 80 0
c gate 81 -61 80 0
-61 -81 0
80 -81 0
61 -80 81 0
c gate 82 41 -81 0
41 -82 0
-81 -82 0
-41 81 82 0
c gate 83 -78 82 0
-78 -83 0
82 -83 0
78 -82 83 0
c gate 84 -56 83 0
-56 -84 0
83 -84 0
56 -83 84 0
c gate 85 58 -84 0
58 -85 0
-84 -85 0
-58 84 85 0
c gate 86 -9 -85 0
-9 -86 0
-85 -86 0
9 85 86 0
c gate 87 58 86 0
58 -87 0
86 -87 0
-58 -86 87 0
c gate 88 2 -3 0
2 -88 0
-3 -88 0
-2 3 88 0
c gate 89 9 11 0
9 -89 0
11 -89 0
-9 -11 89 0
c gate 90 56 89 0
56 -90 0
89 -90 0
-56 -89 90 0
c gate 91 -88 -90 0
-88 -91 0
-90 -91 0
88 90 91 0
c gate 92 -86 91 0
-86 -92 0
91 -92 0
86 -91 92 0
c gate 93 -83 -92 0
-83 -93 0
-92 -93 0
83 92 93 0
c gate 94 -87 -93 0
-87 -94 0
-93 -94 0
87 93 94 0
c gate 95 27 -94 0
27 -95 0
-94 -95 0
-27 94 95 0
c gate 96 -27 83 0
-27 -96 0
83 -96 0
27 -83 96 0
c gate 97 -84 -88 0
-84 -97 0
-88 -97 0
84 88 97 0
c gate 98 9 -97 0
9 -98 0
-97 -98 0
-9 97 98 0
c gate 99 -96 -98 0
-96 -99 0
-98 -99 0
96 98 99 0
c gate 100 -11 -99 0
-11 -100 0
-99 -100 0
11 99 100 0
c gate 101 -95 -100 0
-95 -101 0
-100 -101 0
95 100 101 0
c gate 102 -8 -9 0
-8 -102 0
-9 -102 0
8 9 102 0
c gate 103 5 102 0
5 -103 0
102 -103 0
-5 -102 103 0
c gate 104 4 7 0
4 -104 0
7 -104 0
-4 -7 104 0
c gate 105 1 104 0
1 -105 0
104 -105 0
-1 -104 105 0
c gate 106 103 105 0
103 -106 0
105 -106 0
-103 -105 106 0
c gate 107 37 -106 0
37 -107 0
-106 -107 0
-37 106 107 0
c gate 108 -7 107 0
-7 -108 0
107 -108 0
7 -107 108 0
c gate 109 7 -107 0
7 -109 0
-107 -109 0
-7 107 109 0
c gate 110 8 -10 0
8 -110 0
-10 -110 0
-8 10 110 0
c gate 111 -8 10 0
-8 -111 0
10 -111 0
8 -10 111 0
c gate 112 -110 -111 0
-110 -112 0
-111 -112 0
110 111 112 0
c gate 113 -6 8 0
-6 -113 0
8 -113 0
6 -8 113 0
c gate 114 -9 -113 0
-9 -114 0
-113 -114 0
9 113 114 0
c gate 115 -112 -114 0
-112 -115 0
-114 -115 0
112 114 115 0
c gate 116 -109 115 0
-109 -116 0
115 -116 0
109 -115 116 0
c gate 117 -108 116 0
-108 -117 0
116 -117 0
108 -116 117 0
c gate 118 9 -107 0
9 -118 0
-107 -118 0
-9 107 118 0
c gate 119 7 8 0
7 -119 0
8 -119 0
-7 -8 119 0
c gate 120 -32 -119 0
-32 -120 0
-119 -120 0
32 119 120 0
c gate 121 6 -120 0
6 -121 0
-120 -121 0
-6 120 121 0
c gate 122 -6 22 0
-6 -122 0
22 -122 0
6 -22 122 0
c gate 123 -121 -122 0
-121 -123 0
-122 -123 0
121 122 123 0
c gate 124 13 123 0
13 -124 0
123 -124 0
-13 -123 124 0
c gate 125 -118 -124 0
-118 -125 0
-124 -125 0
118 124 125 0
c gate 126 7 112 0
7 -126 0
112 -126 0
-7 -112 126 0
c gate 127 -113 -126 0
-113 -127 0
-126 -127 0
113 126 127 0
c gate 128 -123 -127 0
-123 -128 0
-127 -128 0
123 127 128 0
c gate 129 6 -10 0
6 -129 0
-10 -129 0
-6 10 129 0
c gate 130 -7 -129 0
-7 -130 0
-129 -130 0
7 129 130 0
c gate 131 -8 -22 0
-8 -131 0
-22 -131 0
8 22 131 0
c gate 132 -130 131 0
-130 -132 0
131 -132 0
130 -131 132 0
c gate 133 -128 -132 0
-128 -133 0
-132 -133 0
128 132 133 0
c gate 134 -107 133 0
-107 -134 0
133 -134 0
107 -133 134 0
c gate 135 -125 -134 0
-125 -135 0
-134 -135 0
125 134 135 0
c gate 136 -7 110 0
-7 -136 0
110 -136 0
7 -110 136 0
c gate 137 -126 -136 0
-126 -137 0
-136 -137 0
126 136 137 0
c gate 138 6 -9 0
6 -138 0
-9 -138 0
-6 9 138 0
c gate 139 -137 138 0
-137 -139 0
138 -139 0
137 -138 139 0
c gate 140 -8 9 0
-8 -140 0
9 -140 0
8 -9 140 0
c gate 141 -6 -7 0
-6 -141 0
-7 -141 0
6 7 141 0
c gate 142 -10 141 0
-10 -142 0
141 -142 0
10 -141 142 0
c gate 143 140 142 0
140 -143 0
142 -143 0
-140 -142 143 0
c gate 144 -139 -143 0
-139 -144 0
-143 -144 0
139 143 144 0
c gate 145 -135 144 0
-135 -145 0
144 -145 0
135 -144 145 0
c gate 146 -117 145 0
-117 -146 0
145 -146 0
117 -145 146 0
c gate 147 3 -146 0
3 -147 0
-146 -147 0
-3 146 147 0
c gate 148 9 146 0
9 -148 0
146 -148 0
-9 -146 148 0
c gate 149 -7 148 0
-7 -149 0
148 -149 0
7 -148 149 0
c gate 150 -147 -149 0
-147 -150 0
-149 -150 0
147 149 150 0
c gate 151 2 -150 0
2 -151 0
-150 -151 0
-2 150 151 0
c gate 152 107 -146 0
107 -152 0
-146 -152 0
-107 146 152 0
c gate 153 -118 -152 0
-118 -153 0
-152 -153 0
118 152 153 0
c gate 154 -2 -153 0
-2 -154 0
-153 -154 0
2 153 154 0
c gate 155 41 146 0
41 -155 0
146 -155 0
-41 -146 155 0
c gate 156 -147 -155 0
-147 -156 0
-155 -156 0
147 155 156 0
c gate 157 7 -156 0
7 -157 0
-156 -157 0
-7 156 157 0
c gate 158 -154 -157 0
-154 -158 0
-157 -158 0
154 157 158 0
c gate 159 -151 158 0
-151 -159 0
158 -159 0
151 -158 159 0
c gate 160 -17 159 0
-17 -160 0
159 -160 0
17 -159 160 0
c gate 161 -27 -160 0
-27 -161 0
-160 -161 0
27 160 161 0
c gate 162 -107 146 0
-107 -162 0
146 -162 0
107 -146 162 0
c gate 163 -152 -162 0
-152 -163 0
-162 -163 0
152 162 163 0
c gate 164 -10 146 0
-10 -164 0
146 -164 0
10 -146 164 0
c gate 165 70 -164 0
70 -165 0
-164 -165 0
-70 164 165 0
c gate 166 163 165 0
163 -166 0
165 -166 0
-163 -165 166 0
c gate 167 11 107 0
11 -167 0
107 -167 0
-11 -107 167 0
c gate 168 -10 167 0
-10 -168 0
167 -168 0
10 -167 168 0
c gate 169 -11 -107 0
-11 -169 0
-107 -169 0
11 107 169 0
c gate 170 -167 -169 0
-167 -170 0
-169 -170 0
167 169 170 0
c gate 171 10 170 0
10 -171 0
170 -171 0
-10 -170 171 0
c gate 172 -168 -171 0
-168 -172 0
-171 -172 0
168 171 172 0
c gate 173 146 -172 0
146 -173 0
-172 -173 0
-146 172 173 0
c gate 174 -9 173 0
-9 -174 0
173 -174 0
9 -173 174 0
c gate 175 -8 -168 0
-8 -175 0
-168 -175 0
8 168 175 0
c gate 176 -174 175 0
-174 -176 0
175 -176 0
174 -175 176 0
c gate 177 -166 176 0
-166 -177 0
176 -177 0
166 -176 177 0
c gate 178 -163 171 0
-163 -178 0
171 -178 0
163 -171 178 0
c gate 179 9 -178 0
9 -179 0
-178 -179 0
-9 178 179 0
c gate 180 74 -146 0
74 -180 0
-146 -180 0
-74 146 180 0
c gate 181 -10 -170 0
-10 -181 0
-170 -181 0
10 170 181 0
c gate 182 -9 -181 0
-9 -182 0
-181 -182 0
9 181 182 0
c gate 183 -180 182 0
-180 -183 0
182 -183 0
180 -182 183 0
c gate 184 -173 183 0
-173 -184 0
183 -184 0
173 -183 184 0
c gate 185 -179 -184 0
-179 -185 0
-184 -185 0
179 184 185 0
c gate 186 59 163 0
59 -186 0
163 -186 0
-59 -163 186 0
c gate 187 10 146 0
10 -187 0
146 -187 0
-10 -146 187 0
c gate 188 89 -187 0
89 -188 0
-187 -188 0
-89 187 188 0
c gate 189 8 -188 0
8 -189 0
-188 -189 0
-8 188 189 0
c gate 190 -186 189 0
-186 -190 0
189 -190 0
186 -189 190 0
c gate 191 -185 190 0
-185 -191 0
190 -191 0
185 -190 191 0
c gate 192 -177 -191 0
-177 -192 0
-191 -192 0
177 191 192 0
c gate 193 -9 -146 0
-9 -193 0
-146 -193 0
9 146 193 0
c gate 194 -148 -193 0
-148 -194 0
-193 -194 0
148 193 194 0
c gate 195 10 -11 0
10 -195 0
-11 -195 0
-10 11 195 0
c gate 196 8 -195 0
8 -196 0
-195 -196 0
-8 195 196 0
c gate 197 -59 -74 0
-59 -197 0
-74 -197 0
59 74 197 0
c gate 198 -8 197 0
-8 -198 0
197 -198 0
8 -197 198 0
c gate 199 -196 -198 0
-196 -199 0
-198 -199 0
196 198 199 0
c gate 200 -194 199 0
-194 -200 0
199 -200 0
194 -199 200 0
c gate 201 140 180 0
140 -201 0
180 -201 0
-140 -180 201 0
c gate 202 -200 -201 0
-200 -202 0
-201 -202 0
200 201 202 0
c gate 203 -192 202 0
-192 -203 0
202 -203 0
192 -202 203 0
c gate 204 -107 203 0
-107 -204 0
203 -204 0
107 -203 204 0
c gate 205 45 49 0
45 -205 0
49 -205 0
-45 -49 205 0
c gate 206 164 205 0
164 -206 0
205 -206 0
-164 -205 206 0
c gate 207 60 -206 0
60 -207 0
-206 -207 0
-60 206 207 0
c gate 208 -146 205 0
-146 -208 0
205 -208 0
146 -205 208 0
c gate 209 55 -208 0
55 -209 0
-208 -209 0
-55 208 209 0
c gate 210 41 52 0
41 -210 0
52 -210 0
-41 -52 210 0
c gate 211 -163 210 0
-163 -211 0
210 -211 0
163 -210 211 0
c gate 212 209 -211 0
209 -212 0
-211 -212 0
-209 211 212 0
c gate 213 207 212 0
207 -213 0
212 -213 0
-207 -212 213 0
c gate 214 -207 -212 0
-207 -214 0
-212 -214 0
207 212 214 0
c gate 215 -213 -214 0
-213 -215 0
-214 -215 0
213 214 215 0
c gate 216 107 -203 0
107 -216 0
-203 -216 0
-107 203 216 0
c gate 217 215 -216 0
215 -217 0
-216 -217 0
-215 216 217 0
c gate 218 -204 217 0
-204 -218 0
217 -218 0
204 -217 218 0
c gate 219 204 -215 0
204 -219 0
-215 -219 0
-204 215 219 0
c gate 220 -203 213 0
-203 -220 0
213 -220 0
203 -213 220 0
c gate 221 41 -220 0
41 -221 0
-220 -221 0
-41 220 221 0
c gate 222 -219 221 0
-219 -222 0
221 -222 0
219 -221 222 0
c gate 223 -218 222 0
-218 -223 0
222 -223 0
218 -222 223 0
c gate 224 161 -223 0
161 -224 0
-223 -224 0
-161 223 224 0
c gate 225 27 160 0
27 -225 0
160 -225 0
-27 -160 225 0
c gate 226 223 225 0
223 -226 0
225 -226 0
-223 -225 226 0
c gate 227 -224 -226 0
-224 -227 0
-226 -227 0
224 226 227 0
c gate 228 9 -227 0
9 -228 0
-227 -228 0
-9 227 228 0
c gate 229 -9 -161 0
-9 -229 0
-161 -229 0
9 161 229 0
c gate 230 -225 229 0
-225 -230 0
229 -230 0
225 -229 230 0
c gate 231 -223 230 0
-223 -231 0
230 -231 0
223 -230 231 0
c gate 232 -228 -231 0
-228 -232 0
-231 -232 0
228 231 232 0
c gate 233 11 -232 0
11 -233 0
-232 -233 0
-11 232 233 0
c gate 234 -11 212 0
-11 -234 0
212 -234 0
11 -212 234 0
c gate 235 223 -234 0
223 -235 0
-234 -235 0
-223 234 235 0
c gate 236 11 -209 0
11 -236 0
-209 -236 0
-11 209 236 0
c gate 237 -223 -236 0
-223 -237 0
-236 -237 0
223 236 237 0
c gate 238 9 -237 0
9 -238 0
-237 -238 0
-9 237 238 0
c gate 239 -235 238 0
-235 -239 0
238 -239 0
235 -238 239 0
c gate 240 -11 -223 0
-11 -240 0
-223 -240 0
11 223 240 0
c gate 241 11 223 0
11 -241 0
223 -241 0
-11 -223 241 0
c gate 242 -240 -241 0
-240 -242 0
-241 -242 0
240 241 242 0
c gate 243 -9 212 0
-9 -243 0
212 -243 0
9 -212 243 0
c gate 244 -242 243 0
-242 -244 0
243 -244 0
242 -243 244 0
c gate 245 -239 -244 0
-239 -245 0
-244 -245 0
239 244 245 0
c gate 246 27 -160 0
27 -246 0
-160 -246 0
-27 160 246 0
c gate 247 -245 246 0
-245 -247 0
246 -247 0
245 -246 247 0
c gate 248 -234 -236 0
-234 -248 0
-236 -248 0
234 236 248 0
c gate 249 27 248 0
27 -249 0
248 -249 0
-27 -248 249 0
c gate 250 11 -27 0
11 -250 0
-27 -250 0
-11 27 250 0
c gate 251 -52 -250 0
-52 -251 0
-250 -251 0
52 250 251 0
c gate 252 -65 -89 0
-65 -252 0
-89 -252 0
65 89 252 0
c gate 253 251 252 0
251 -253 0
252 -253 0
-251 -252 253 0
c gate 254 234 253 0
234 -254 0
253 -254 0
-234 -253 254 0
c gate 255 -249 -254 0
-249 -255 0
-254 -255 0
249 254 255 0
c gate 256 -223 255 0
-223 -256 0
255 -256 0
223 -255 256 0
c gate 257 248 253 0
248 -257 0
253 -257 0
-248 -253 257 0
c gate 258 223 -257 0
223 -258 0
-257 -258 0
-223 257 258 0
c gate 259 160 -258 0
160 -259 0
-258 -259 0
-160 258 259 0
c gate 260 -256 259 0
-256 -260 0
259 -260 0
256 -259 260 0
c gate 261 9 -160 0
9 -261 0
-160 -261 0
-9 160 261 0
c gate 262 -9 159 0
-9 -262 0
159 -262 0
9 -159 262 0
c gate 263 -261 -262 0
-261 -263 0
-262 -263 0
261 262 263 0
c gate 264 -225 -263 0
-225 -264 0
-263 -264 0
225 263 264 0
c gate 265 -242 264 0
-242 -265 0
264 -265 0
242 -264 265 0
c gate 266 65 224 0
65 -266 0
224 -266 0
-65 -224 266 0
c gate 267 -251 263 0
-251 -267 0
263 -267 0
251 -263 267 0
c gate 268 -240 267 0
-240 -268 0
267 -268 0
240 -267 268 0
c gate 269 -266 -268 0
-266 -269 0
-268 -269 0
266 268 269 0
c gate 270 -265 269 0
-265 -270 0
269 -270 0
265 -269 270 0
c gate 271 -260 270 0
-260 -271 0
270 -271 0
260 -270 271 0
c gate 272 -247 271 0
-247 -272 0
271 -272 0
247 -271 272 0
c gate 273 -233 272 0
-233 -273 0
272 -273 0
233 -272 273 0
c gate 274 101 273 0
101 -274 0
273 -274 0
-101 -273 274 0
c gate 275 -101 -273 0
-101 -275 0
-273 -275 0
101 273 275 0
c gate 276 -83 223 0
-83 -276 0
223 -276 0
83 -223 276 0
c gate 277 83 -223 0
83 -277 0
-223 -277 0
-83 223 277 0
c gate 278 2 -10 0
2 -278 0
-10 -278 0
-2 10 278 0
c gate 279 -12 -278 0
-12 -279 0
-278 -279 0
12 278 279 0
c gate 280 41 121 0
41 -280 0
121 -280 0
-41 -121 280 0
c gate 281 -6 -8 0
-6 -281 0
-8 -281 0
6 8 281 0
c gate 282 41 -281 0
41 -282 0
-281 -282 0
-41 281 282 0
c gate 283 18 -282 0
18 -283 0
-282 -283 0
-18 282 283 0
c gate 284 -280 -283 0
-280 -284 0
-283 -284 0
280 283 284 0
c gate 285 -279 284 0
-279 -285 0
284 -285 0
279 -284 285 0
c gate 286 279 -284 0
279 -286 0
-284 -286 0
-279 284 286 0
c gate 287 -5 13 0
-5 -287 0
13 -287 0
5 -13 287 0
c gate 288 -103 -287 0
-103 -288 0
-287 -288 0
103 287 288 0
c gate 289 -4 -9 0
-4 -289 0
-9 -289 0
4 9 289 0
c gate 290 113 -289 0
113 -290 0
-289 -290 0
-113 289 290 0
c gate 291 8 -289 0
8 -291 0
-289 -291 0
-8 289 291 0
c gate 292 6 -102 0
6 -292 0
-102 -292 0
-6 102 292 0
c gate 293 -291 292 0
-291 -293 0
292 -293 0
291 -292 293 0
c gate 294 -290 -293 0
-290 -294 0
-293 -294 0
290 293 294 0
c gate 295 5 -294 0
5 -295 0
-294 -295 0
-5 294 295 0
c gate 296 -5 6 0
-5 -296 0
6 -296 0
5 -6 296 0
c gate 297 28 296 0
28 -297 0
296 -297 0
-28 -296 297 0
c gate 298 -295 -297 0
-295 -298 0
-297 -298 0
295 297 298 0
c gate 299 288 298 0
288 -299 0
298 -299 0
-288 -298 299 0
c gate 300 -11 -299 0
-11 -300 0
-299 -300 0
11 299 300 0
c gate 301 120 252 0
120 -301 0
252 -301 0
-120 -252 301 0
c gate 302 -102 -301 0
-102 -302 0
-301 -302 0
102 301 302 0
c gate 303 300 302 0
300 -303 0
302 -303 0
-300 -302 303 0
c gate 304 -300 301 0
-300 -304 0
301 -304 0
300 -301 304 0
c gate 305 11 -140 0
11 -305 0
-140 -305 0
-11 140 305 0
c gate 306 -33 305 0
-33 -306 0
305 -306 0
33 -305 306 0
c gate 307 -304 -306 0
-304 -307 0
-306 -307 0
304 306 307 0
c gate 308 -303 307 0
-303 -308 0
307 -308 0
303 -307 308 0
c gate 309 7 -299 0
7 -309 0
-299 -309 0
-7 299 309 0
c gate 310 -4 -309 0
-4 -310 0
-309 -310 0
4 309 310 0
c gate 311 -8 65 0
-8 -311 0
65 -311 0
8 -65 311 0
c gate 312 -310 311 0
-310 -312 0
311 -312 0
310 -311 312 0
c gate 313 4 309 0
4 -313 0
309 -313 0
-4 -309 313 0
c gate 314 312 -313 0
312 -314 0
-313 -314 0
-312 313 314 0
c gate 315 308 -314 0
308 -315 0
-314 -315 0
-308 314 315 0
c gate 316 286 -315 0
286 -316 0
-315 -316 0
-286 315 316 0
c gate 317 -285 -316 0
-285 -317 0
-316 -317 0
285 316 317 0
c gate 318 -11 -317 0
-11 -318 0
-317 -318 0
11 317 318 0
c gate 319 19 48 0
19 -319 0
48 -319 0
-19 -48 319 0
c gate 320 -10 49 0
-10 -320 0
49 -320 0
10 -49 320 0
c gate 321 284 320 0
284 -321 0
320 -321 0
-284 -320 321 0
c gate 322 -319 -321 0
-319 -322 0
-321 -322 0
319 321 322 0
c gate 323 -315 -322 0
-315 -323 0
-322 -323 0
315 322 323 0
c gate 324 -10 -284 0
-10 -324 0
-284 -324 0
10 284 324 0
c gate 325 -11 -18 0
-11 -325 0
-18 -325 0
11 18 325 0
c gate 326 50 -325 0
50 -326 0
-325 -326 0
-50 325 326 0
c gate 327 -324 326 0
-324 -327 0
326 -327 0
324 -326 327 0
c gate 328 315 327 0
315 -328 0
327 -328 0
-315 -327 328 0
c gate 329 -323 -328 0
-323 -329 0
-328 -329 0
323 328 329 0
c gate 330 -318 329 0
-318 -330 0
329 -330 0
318 -329 330 0
c gate 331 -3 -330 0
-3 -331 0
-330 -331 0
3 330 331 0
c gate 332 286 315 0
286 -332 0
315 -332 0
-286 -315 332 0
c gate 333 9 -279 0
9 -333 0
-279 -333 0
-9 279 333 0
c gate 334 3 -333 0
3 -334 0
-333 -334 0
-3 333 334 0
c gate 335 -332 -334 0
-332 -335 0
-334 -335 0
332 334 335 0
c gate 336 11 -335 0
11 -336 0
-335 -336 0
-11 335 336 0
c gate 337 -2 11 0
-2 -337 0
11 -337 0
2 -11 337 0
c gate 338 -20 -337 0
-20 -338 0
-337 -338 0
20 337 338 0
c gate 339 197 338 0
197 -339 0
338 -339 0
-197 -338 339 0
c gate 340 284 339 0
284 -340 0
339 -340 0
-284 -339 340 0
c gate 341 -336 -340 0
-336 -341 0
-340 -341 0
336 340 341 0
c gate 342 -331 341 0
-331 -342 0
341 -342 0
331 -341 342 0
c gate 343 -1 102 0
-1 -343 0
102 -343 0
1 -102 343 0
c gate 344 -288 -343 0
-288 -344 0
-343 -344 0
288 343 344 0
c gate 345 -4 -5 0
-4 -345 0
-5 -345 0
4 5 345 0
c gate 346 -29 -345 0
-29 -346 0
-345 -346 0
29 345 346 0
c gate 347 343 346 0
343 -347 0
346 -347 0
-343 -346 347 0
c gate 348 -344 -347 0
-344 -348 0
-347 -348 0
344 347 348 0
c gate 349 298 348 0
298 -349 0
348 -349 0
-298 -348 349 0
c gate 350 104 -349 0
104 -350 0
-349 -350 0
-104 349 350 0
c gate 351 312 -350 0
312 -351 0
-350 -351 0
-312 350 351 0
c gate 352 308 -351 0
308 -352 0
-351 -352 0
-308 351 352 0
c gate 353 286 -352 0
286 -353 0
-352 -353 0
-286 352 353 0
c gate 354 -285 -353 0
-285 -354 0
-353 -354 0
285 353 354 0
c gate 355 -11 -354 0
-11 -355 0
-354 -355 0
11 354 355 0
c gate 356 -322 -352 0
-322 -356 0
-352 -356 0
322 352 356 0
c gate 357 327 352 0
327 -357 0
352 -357 0
-327 -352 357 0
c gate 358 -356 -357 0
-356 -358 0
-357 -358 0
356 357 358 0
c gate 359 -355 358 0
-355 -359 0
358 -359 0
355 -358 359 0
c gate 360 -3 -359 0
-3 -360 0
-359 -360 0
3 359 360 0
c gate 361 286 352 0
286 -361 0
352 -361 0
-286 -352 361 0
c gate 362 -334 -361 0
-334 -362 0
-361 -362 0
334 361 362 0
c gate 363 11 -362 0
11 -363 0
-362 -363 0
-11 362 363 0
c gate 364 -340 -363 0
-340 -364 0
-363 -364 0
340 363 364 0
c gate 365 -360 364 0
-360 -365 0
364 -365 0
360 -364 365 0
c gate 366 -342 -365 0
-342 -366 0
-365 -366 0
342 365 366 0
c gate 367 342 365 0
342 -367 0
365 -367 0
-342 -365 367 0
c gate 368 -366 -367 0
-366 -368 0
-367 -368 0
366 367 368 0
c gate 369 3 -10 0
3 -369 0
-10 -369 0
-3 10 369 0
c gate 370 5 -6 0
5 -370 0
-6 -370 0
-5 6 370 0
c gate 371 -296 -370 0
-296 -371 0
-370 -371 0
296 370 371 0
c gate 372 -10 41 0
-10 -372 0
41 -372 0
10 -41 372 0
c gate 373 -371 372 0
-371 -373 0
372 -373 0
371 -372 373 0
c gate 374 -369 -373 0
-369 -374 0
-373 -374 0
369 373 374 0
c gate 375 -2 374 0
-2 -375 0
374 -375 0
2 -374 375 0
c gate 376 8 -346 0
8 -376 0
-346 -376 0
-8 346 376 0
c gate 377 -9 -376 0
-9 -377 0
-376 -377 0
9 376 377 0
c gate 378 -10 -377 0
-10 -378 0
-377 -378 0
10 377 378 0
c gate 379 -11 -378 0
-11 -379 0
-378 -379 0
11 378 379 0
c gate 380 6 7 0
6 -380 0
7 -380 0
-6 -7 380 0
c gate 381 -141 -380 0
-141 -381 0
-380 -381 0
141 380 381 0
c gate 382 10 -381 0
10 -382 0
-381 -382 0
-10 381 382 0
c gate 383 379 -382 0
379 -383 0
-382 -383 0
-379 382 383 0
c gate 384 -11 -383 0
-11 -384 0
-383 -384 0
11 383 384 0
c gate 385 375 384 0
375 -385 0
384 -385 0
-375 -384 385 0
c gate 386 8 88 0
8 -386 0
88 -386 0
-8 -88 386 0
c gate 387 374 -386 0
374 -387 0
-386 -387 0
-374 386 387 0
c gate 388 2 -387 0
2 -388 0
-387 -388 0
-2 387 388 0
c gate 389 11 -120 0
11 -389 0
-120 -389 0
-11 120 389 0
c gate 390 -3 -389 0
-3 -390 0
-389 -390 0
3 389 390 0
c gate 391 -388 390 0
-388 -391 0
390 -391 0
388 -390 391 0
c gate 392 -385 391 0
-385 -392 0
391 -392 0
385 -391 392 0
c gate 393 369 -379 0
369 -393 0
-379 -393 0
-369 379 393 0
c gate 394 48 387 0
48 -394 0
387 -394 0
-48 -387 394 0
c gate 395 -393 -394 0
-393 -395 0
-394 -395 0
393 394 395 0
c gate 396 -392 395 0
-392 -396 0
395 -396 0
392 -395 396 0
c gate 397 9 -396 0
9 -397 0
-396 -397 0
-9 396 397 0
c gate 398 -9 -369 0
-9 -398 0
-369 -398 0
9 369 398 0
c gate 399 -383 -389 0
-383 -399 0
-389 -399 0
383 389 399 0
c gate 400 -50 399 0
-50 -400 0
399 -400 0
50 -399 400 0
c gate 401 -375 -388 0
-375 -401 0
-388 -401 0
375 388 401 0
c gate 402 50 -399 0
50 -402 0
-399 -402 0
-50 399 402 0
c gate 403 -401 -402 0
-401 -403 0
-402 -403 0
401 402 403 0
c gate 404 -400 403 0
-400 -404 0
403 -404 0
400 -403 404 0
c gate 405 -387 -389 0
-387 -405 0
-389 -405 0
387 389 405 0
c gate 406 -384 405 0
-384 -406 0
405 -406 0
384 -405 406 0
c gate 407 -3 -406 0
-3 -407 0
-406 -407 0
3 406 407 0
c gate 408 -404 407 0
-404 -408 0
407 -408 0
404 -407 408 0
c gate 409 398 -408 0
398 -409 0
-408 -409 0
-398 408 409 0
c gate 410 -397 -409 0
-397 -410 0
-409 -410 0
397 409 410 0
c gate 411 89 405 0
89 -411 0
405 -411 0
-89 -405 411 0
c gate 412 -1 -104 0
-1 -412 0
-104 -412 0
1 104 412 0
c gate 413 -105 -412 0
-105 -413 0
-412 -413 0
105 412 413 0
c gate 414 -8 -413 0
-8 -414 0
-413 -414 0
8 413 414 0
c gate 415 377 -414 0
377 -415 0
-414 -415 0
-377 414 415 0
c gate 416 120 415 0
120 -416 0
415 -416 0
-120 -415 416 0
c gate 417 -10 -416 0
-10 -417 0
-416 -417 0
10 416 417 0
c gate 418 383 -417 0
383 -418 0
-417 -418 0
-383 417 418 0
c gate 419 415 417 0
415 -419 0
417 -419 0
-415 -417 419 0
c gate 420 -389 -419 0
-389 -420 0
-419 -420 0
389 419 420 0
c gate 421 -418 420 0
-418 -421 0
420 -421 0
418 -420 421 0
c gate 422 -11 421 0
-11 -422 0
421 -422 0
11 -421 422 0
c gate 423 -389 -422 0
-389 -423 0
-422 -423 0
389 422 423 0
c gate 424 -9 -387 0
-9 -424 0
-387 -424 0
9 387 424 0
c gate 425 9 387 0
9 -425 0
387 -425 0
-9 -387 425 0
c gate 426 -424 -425 0
-424 -426 0
-425 -426 0
424 425 426 0
c gate 427 -423 426 0
-423 -427 0
426 -427 0
423 -426 427 0
c gate 428 -411 -427 0
-411 -428 0
-427 -428 0
411 427 428 0
c gate 429 3 -428 0
3 -429 0
-428 -429 0
-3 428 429 0
c gate 430 -74 -373 0
-74 -430 0
-373 -430 0
74 373 430 0
c gate 431 338 -430 0
338 -431 0
-430 -431 0
-338 430 431 0
c gate 432 50 -421 0
50 -432 0
-421 -432 0
-50 421 432 0
c gate 433 -50 421 0
-50 -433 0
421 -433 0
50 -421 433 0
c gate 434 -432 -433 0
-432 -434 0
-433 -434 0
432 433 434 0
c gate 435 -3 -42 0
-3 -435 0
-42 -435 0
3 42 435 0
c gate 436 401 435 0
401 -436 0
435 -436 0
-401 -435 436 0
c gate 437 434 436 0
434 -437 0
436 -437 0
-434 -436 437 0
c gate 438 -431 -437 0
-431 -438 0
-437 -438 0
431 437 438 0
c gate 439 9 -438 0
9 -439 0
-438 -439 0
-9 438 439 0
c gate 440 -3 387 0
-3 -440 0
387 -440 0
3 -387 440 0
c gate 441 -9 440 0
-9 -441 0
440 -441 0
9 -440 441 0
c gate 442 -398 -440 0
-398 -442 0
-440 -442 0
398 440 442 0
c gate 443 -441 -442 0
-441 -443 0
-442 -443 0
441 442 443 0
c gate 444 423 443 0
423 -444 0
443 -444 0
-423 -443 444 0
c gate 445 -3 -9 0
-3 -445 0
-9 -445 0
3 9 445 0
c gate 446 -401 445 0
-401 -446 0
445 -446 0
401 -445 446 0
c gate 447 434 446 0
434 -447 0
446 -447 0
-434 -446 447 0
c gate 448 -444 -447 0
-444 -448 0
-447 -448 0
444 447 448 0
c gate 449 -439 448 0
-439 -449 0
448 -449 0
439 -448 449 0
c gate 450 -429 449 0
-429 -450 0
449 -450 0
429 -449 450 0
c gate 451 -410 450 0
-410 -451 0
450 -451 0
410 -450 451 0
c gate 452 410 -450 0
410 -452 0
-450 -452 0
-410 450 452 0
c gate 453 56 -212 0
56 -453 0
-212 -453 0
-56 212 453 0
c gate 454 -56 212 0
-56 -454 0
212 -454 0
56 -212 454 0
c gate 455 102 141 0
102 -455 0
141 -455 0
-102 -141 455 0
c gate 456 60 455 0
60 -456 0
455 -456 0
-60 -455 456 0
c gate 457 -206 -456 0
-206 -457 0
-456 -457 0
206 456 457 0
c gate 458 -454 457 0
-454 -458 0
457 -458 0
454 -457 458 0
c gate 459 -453 458 0
-453 -459 0
458 -459 0
453 -458 459 0
c gate 460 -452 459 0
-452 -460 0
459 -460 0
452 -459 460 0
c gate 461 -451 460 0
-451 -461 0
460 -461 0
451 -460 461 0
c gate 462 -368 461 0
-368 -462 0
461 -462 0
368 -461 462 0
c gate 463 -277 462 0
-277 -463 0
462 -463 0
277 -462 463 0
c gate 464 -276 463 0
-276 -464 0
463 -464 0
276 -463 464 0
c gate 465 -275 464 0
-275 -465 0
464 -465 0
275 -464 465 0
c gate 466 -274 465 0
-274 -466 0
465 -466 0
274 -465 466 0
c PO
-466 0
